p cnf 21 56
-1 -4 -7 -16 0
-1 -4  7  16 0
 1 -4 -7  16 0
 1  4 -7 -16 0
-1  4 -7  16 0
 1 -4  7 -16 0
-1  4  7 -16 0
 1  4  7  16 0
-3 -8 -12 -1 0
-3 -8  12  1 0
 3 -8 -12  1 0
 3  8 -12 -1 0
-3  8 -12  1 0
 3 -8  12 -1 0
-3  8  12 -1 0
 3  8  12  1 0
-6 -13 -18 -3 0
-6 -13  18  3 0
 6 -13 -18  3 0
 6  13 -18 -3 0
-6  13 -18  3 0
 6 -13  18 -3 0
-6  13  18 -3 0
 6  13  18  3 0
-10 -19 -4 -6 0
-10 -19  4  6 0
 10 -19 -4  6 0
 10  19 -4 -6 0
-10  19 -4  6 0
 10 -19  4 -6 0
-10  19  4 -6 0
 10  19  4  6 0
-15 -7 -8 -10 0
-15 -7  8  10 0
 15 -7 -8  10 0
 15  7 -8 -10 0
-15  7 -8  10 0
 15 -7  8 -10 0
-15  7  8 -10 0
 15  7  8  10 0
-21 -12 -13 -15 0
-21 -12  13  15 0
 21 -12 -13  15 0
 21  12 -13 -15 0
-21  12 -13  15 0
 21 -12  13 -15 0
-21  12  13 -15 0
 21  12  13  15 0
-16 -18 -19 -21 0
-16 -18  19  21 0
 16 -18 -19  21 0
 16  18 -19 -21 0
-16  18 -19  21 0
 16 -18  19 -21 0
-16  18  19 -21 0
 16  18  19  21 0
